============================[ Problem Statistics ]=============================|                                                                             ||  Number of variables:          4242                                         ||  Number of clauses:           10372                                         ||  Parse time:                   0.77 s                                       ||                                                                             |============================[ Search Statistics ]==============================| Conflicts |          ORIGINAL         |          LEARNT          | Progress ||           |    Vars  Clauses Literals |    Limit  Clauses Lit/Cl |          |===============================================================================|       100 |    1591     6577  1211408 |     2411      100     53 | 62.501 % ||       250 |    1591     6577  1211408 |     2652      250     75 | 62.495 % |===============================================================================restarts              : 4conflicts             : 411            (356 /sec)decisions             : 772            (0.00 % random) (670 /sec)propagations          : 13666          (11853 /sec)conflict literals     : 34271          (94.53 % deleted)CPU time              : 1.153 sSATISFIABLE